jobs  (incl. supersource/sink ):	52
RESOURCES
- renewable                 : 2 R
- nonrenewable              : 4 N
- doubly constrained        : 0 D
************************************************************************
PRECEDENCE RELATIONS:
jobnr.    #modes  #successors   successors
1	1	18		2 3 4 5 6 7 8 9 10 12 13 14 16 17 21 23 25 30 
2	6	8		51 50 46 29 27 26 24 11 
3	6	13		51 50 49 48 47 45 44 39 31 28 27 26 22 
4	6	6		48 46 26 20 19 15 
5	6	7		48 47 32 31 26 24 18 
6	6	7		48 40 38 33 31 27 18 
7	6	6		50 32 27 26 24 20 
8	6	8		50 49 47 46 43 33 29 20 
9	6	9		47 46 43 42 41 40 39 26 24 
10	6	8		49 47 45 36 29 28 27 26 
11	6	6		45 44 42 41 40 20 
12	6	8		44 43 42 39 36 31 28 26 
13	6	7		45 43 42 40 36 28 26 
14	6	5		44 39 37 27 22 
15	6	8		45 44 43 42 40 39 36 28 
16	6	7		49 43 42 41 37 36 28 
17	6	7		47 44 43 41 40 36 28 
18	6	6		46 44 42 39 36 28 
19	6	5		39 38 35 34 27 
20	6	5		39 38 37 36 28 
21	6	5		41 38 37 36 28 
22	6	6		43 42 41 40 38 34 
23	6	5		39 38 37 36 35 
24	6	3		44 36 28 
25	6	4		44 40 39 36 
26	6	3		38 37 34 
27	6	3		43 42 41 
28	6	2		35 34 
29	6	2		41 40 
30	6	2		41 34 
31	6	1		37 
32	6	1		40 
33	6	1		39 
34	6	1		52 
35	6	1		52 
36	6	1		52 
37	6	1		52 
38	6	1		52 
39	6	1		52 
40	6	1		52 
41	6	1		52 
42	6	1		52 
43	6	1		52 
44	6	1		52 
45	6	1		52 
46	6	1		52 
47	6	1		52 
48	6	1		52 
49	6	1		52 
50	6	1		52 
51	6	1		52 
52	1	0		
************************************************************************
REQUESTS/DURATIONS
jobnr.	mode	dur	R1	R2	N1	N2	N3	N4	
------------------------------------------------------------------------
1	1	0	0	0	0	0	0	0	
2	1	2	5	4	16	10	7	19	
	2	4	4	3	15	9	6	17	
	3	6	4	3	15	7	4	15	
	4	11	3	3	15	6	4	14	
	5	13	2	2	14	3	3	12	
	6	14	2	2	14	1	2	11	
3	1	3	2	4	8	17	14	6	
	2	6	1	3	8	16	14	5	
	3	10	1	3	8	13	12	4	
	4	12	1	2	7	9	10	4	
	5	17	1	1	6	5	7	3	
	6	19	1	1	6	5	7	2	
4	1	3	2	5	10	6	17	17	
	2	6	2	4	10	5	13	16	
	3	11	2	4	10	5	12	16	
	4	12	1	3	10	5	9	16	
	5	14	1	3	10	4	6	15	
	6	15	1	3	10	4	4	14	
5	1	4	4	5	9	13	16	6	
	2	9	4	4	9	11	14	6	
	3	12	4	3	8	9	12	6	
	4	18	4	3	8	9	10	5	
	5	19	4	2	7	8	7	5	
	6	20	4	2	7	6	6	5	
6	1	2	2	4	8	19	16	16	
	2	3	2	4	8	14	16	13	
	3	9	2	4	7	14	16	11	
	4	10	2	4	7	12	15	7	
	5	11	2	4	6	9	15	5	
	6	19	2	4	6	5	15	3	
7	1	1	2	2	10	18	7	8	
	2	5	1	2	8	17	7	8	
	3	6	1	2	6	16	6	8	
	4	8	1	2	5	15	4	8	
	5	10	1	2	4	13	3	8	
	6	20	1	2	2	13	1	8	
8	1	5	4	3	16	13	14	15	
	2	11	4	2	12	13	14	11	
	3	12	4	2	11	13	13	8	
	4	13	4	1	8	13	13	7	
	5	17	4	1	5	13	12	4	
	6	20	4	1	5	13	12	3	
9	1	2	1	1	19	4	16	8	
	2	9	1	1	17	4	12	6	
	3	11	1	1	12	4	11	6	
	4	13	1	1	11	3	6	4	
	5	19	1	1	9	3	5	4	
	6	20	1	1	4	2	4	3	
10	1	8	4	1	18	15	18	12	
	2	10	4	1	17	15	17	12	
	3	11	4	1	15	12	15	10	
	4	12	4	1	15	11	14	8	
	5	13	4	1	12	6	10	7	
	6	19	4	1	11	5	9	7	
11	1	3	2	1	14	17	16	18	
	2	6	1	1	12	15	15	17	
	3	8	1	1	10	11	14	16	
	4	9	1	1	10	10	10	16	
	5	10	1	1	7	7	9	15	
	6	16	1	1	5	6	7	14	
12	1	3	1	3	4	13	12	12	
	2	8	1	2	4	13	11	11	
	3	9	1	2	4	12	11	11	
	4	11	1	1	4	12	11	11	
	5	12	1	1	4	11	11	11	
	6	17	1	1	4	11	11	10	
13	1	1	4	4	15	9	16	3	
	2	5	3	4	13	7	15	3	
	3	6	3	4	12	6	14	3	
	4	9	2	4	7	6	14	3	
	5	18	2	4	6	3	13	2	
	6	20	1	4	3	2	13	2	
14	1	10	4	3	17	14	9	16	
	2	15	4	2	17	11	8	16	
	3	16	4	2	17	10	8	14	
	4	17	4	1	17	10	7	14	
	5	18	4	1	16	8	5	13	
	6	19	4	1	16	7	5	12	
15	1	2	4	3	10	19	9	9	
	2	4	4	3	9	16	7	8	
	3	8	3	3	8	15	6	8	
	4	11	3	3	8	14	5	8	
	5	12	1	3	8	12	5	6	
	6	18	1	3	7	10	4	6	
16	1	2	5	4	9	19	15	16	
	2	3	4	4	8	18	14	12	
	3	4	3	3	8	17	14	11	
	4	5	2	3	7	17	13	8	
	5	12	2	2	5	16	13	7	
	6	16	1	1	5	16	13	5	
17	1	5	2	3	13	12	12	9	
	2	7	1	3	11	11	8	6	
	3	17	1	3	10	11	7	6	
	4	18	1	3	10	10	6	5	
	5	19	1	3	9	10	3	3	
	6	20	1	3	8	10	1	3	
18	1	5	3	3	18	7	15	16	
	2	9	2	2	18	6	14	15	
	3	13	2	2	18	6	14	14	
	4	14	1	1	17	5	11	14	
	5	16	1	1	16	5	10	13	
	6	17	1	1	16	5	10	12	
19	1	7	5	2	9	4	18	15	
	2	9	4	1	7	4	15	15	
	3	10	4	1	7	4	13	15	
	4	16	4	1	4	4	11	15	
	5	18	4	1	2	3	10	15	
	6	19	4	1	2	3	8	15	
20	1	3	4	2	9	6	17	18	
	2	5	3	2	8	6	17	17	
	3	9	3	2	8	5	17	16	
	4	15	2	2	7	4	17	16	
	5	16	2	2	7	3	17	15	
	6	17	2	2	6	3	17	15	
21	1	2	4	2	9	15	12	18	
	2	4	3	2	8	15	11	14	
	3	11	2	2	8	15	9	10	
	4	13	2	2	7	15	8	10	
	5	16	2	2	7	14	8	7	
	6	20	1	2	7	14	6	3	
22	1	2	2	3	6	8	9	3	
	2	9	2	3	5	7	9	2	
	3	11	2	3	5	7	8	2	
	4	14	2	3	4	7	7	2	
	5	15	2	3	3	6	5	1	
	6	18	2	3	3	6	4	1	
23	1	3	1	3	14	17	3	16	
	2	4	1	3	14	16	3	15	
	3	5	1	3	9	14	3	15	
	4	10	1	3	9	14	2	14	
	5	11	1	3	6	11	1	12	
	6	12	1	3	1	11	1	12	
24	1	3	4	2	4	17	17	9	
	2	6	3	2	4	15	14	9	
	3	8	3	2	4	14	13	7	
	4	9	3	2	4	11	8	7	
	5	10	3	2	4	10	4	6	
	6	14	3	2	4	9	4	4	
25	1	1	4	5	15	9	8	11	
	2	2	4	4	14	8	8	10	
	3	4	4	3	14	7	8	6	
	4	6	4	3	13	7	8	4	
	5	15	3	3	13	6	8	3	
	6	16	3	2	13	6	8	1	
26	1	1	3	5	16	19	16	7	
	2	2	3	4	15	19	14	6	
	3	3	3	4	12	19	12	6	
	4	6	3	4	10	19	8	6	
	5	17	2	3	9	19	4	6	
	6	18	2	3	8	19	4	6	
27	1	6	5	5	5	7	19	4	
	2	7	4	4	5	6	18	4	
	3	11	4	4	4	6	18	4	
	4	12	3	3	3	5	18	4	
	5	13	2	3	2	3	17	4	
	6	16	2	3	1	2	17	4	
28	1	2	3	1	19	15	16	9	
	2	7	2	1	18	13	16	9	
	3	12	2	1	18	13	15	8	
	4	17	2	1	17	11	15	7	
	5	18	2	1	17	11	14	6	
	6	20	2	1	16	10	14	6	
29	1	3	5	5	7	14	20	7	
	2	4	4	5	6	13	19	7	
	3	8	4	5	5	13	18	7	
	4	13	4	5	3	13	18	7	
	5	15	4	5	3	12	16	7	
	6	17	4	5	2	12	16	7	
30	1	2	5	3	12	19	12	6	
	2	9	4	3	10	19	12	6	
	3	12	3	3	10	18	12	6	
	4	14	3	3	8	17	12	6	
	5	15	1	3	7	15	12	6	
	6	19	1	3	6	15	12	6	
31	1	8	3	1	13	5	5	14	
	2	10	2	1	10	4	5	13	
	3	11	2	1	10	4	4	13	
	4	13	2	1	8	4	4	13	
	5	19	2	1	5	4	3	13	
	6	20	2	1	5	4	3	12	
32	1	1	5	2	19	19	10	18	
	2	4	5	2	18	17	9	15	
	3	6	5	2	18	15	9	12	
	4	11	5	2	17	13	8	11	
	5	12	5	2	17	10	7	8	
	6	20	5	2	16	10	6	8	
33	1	3	2	3	17	10	18	12	
	2	5	1	3	16	9	17	11	
	3	6	1	3	14	8	17	11	
	4	9	1	3	11	8	16	10	
	5	11	1	3	9	7	16	9	
	6	19	1	3	6	7	16	9	
34	1	4	4	4	16	4	6	18	
	2	8	4	4	16	4	5	18	
	3	9	4	4	15	4	5	18	
	4	11	4	4	13	3	5	18	
	5	12	4	4	13	3	4	18	
	6	18	4	4	12	3	4	18	
35	1	7	4	5	20	9	18	14	
	2	8	4	4	19	8	18	13	
	3	10	4	4	19	7	18	13	
	4	15	3	4	18	5	17	12	
	5	18	3	4	18	5	16	12	
	6	19	2	4	17	3	16	12	
36	1	7	4	1	6	14	9	18	
	2	8	4	1	6	11	8	18	
	3	9	3	1	5	11	8	18	
	4	12	3	1	3	9	8	18	
	5	15	3	1	3	8	8	17	
	6	17	2	1	2	8	8	17	
37	1	5	4	4	20	19	20	17	
	2	6	4	3	18	19	19	16	
	3	7	4	3	18	19	18	14	
	4	10	3	2	17	19	18	10	
	5	18	3	2	17	19	16	8	
	6	19	3	2	16	19	16	7	
38	1	1	4	4	9	14	14	9	
	2	3	3	3	8	11	14	9	
	3	6	3	3	6	8	14	9	
	4	10	2	3	4	7	14	9	
	5	12	2	3	4	4	14	9	
	6	18	1	3	2	1	14	9	
39	1	2	5	4	7	12	17	7	
	2	7	4	4	6	12	13	6	
	3	8	3	4	5	12	13	6	
	4	9	3	3	4	11	10	4	
	5	10	2	3	2	11	7	3	
	6	20	2	3	2	11	4	3	
40	1	3	5	3	14	12	7	18	
	2	4	4	3	12	8	5	16	
	3	8	4	3	12	7	4	10	
	4	14	4	3	10	7	3	8	
	5	16	3	3	10	5	2	4	
	6	20	3	3	9	3	2	4	
41	1	1	4	3	10	15	18	16	
	2	4	4	3	9	13	18	14	
	3	6	4	3	9	11	16	12	
	4	10	4	3	9	11	16	11	
	5	12	4	2	7	8	14	10	
	6	14	4	2	7	8	13	9	
42	1	5	4	5	19	13	2	6	
	2	7	3	5	18	11	2	6	
	3	9	3	5	17	11	2	6	
	4	18	2	5	16	8	2	6	
	5	19	2	5	16	5	2	6	
	6	20	1	5	15	4	2	6	
43	1	3	5	4	19	9	1	7	
	2	13	4	4	18	8	1	6	
	3	14	4	4	16	8	1	6	
	4	15	3	4	15	7	1	5	
	5	17	3	4	14	5	1	4	
	6	19	3	4	14	5	1	3	
44	1	2	2	2	14	15	16	13	
	2	7	2	2	14	13	12	13	
	3	8	2	2	14	13	12	12	
	4	10	2	2	14	11	7	12	
	5	15	2	2	14	10	6	12	
	6	20	2	2	14	10	5	12	
45	1	5	2	5	13	19	3	11	
	2	9	2	4	12	19	3	9	
	3	11	2	4	11	19	3	7	
	4	12	2	4	9	19	2	6	
	5	14	2	3	9	19	1	5	
	6	15	2	3	6	19	1	3	
46	1	2	2	5	19	7	18	16	
	2	3	2	4	18	6	16	12	
	3	4	2	4	16	5	12	10	
	4	10	2	4	12	3	11	9	
	5	13	1	4	12	2	9	8	
	6	15	1	4	9	2	5	5	
47	1	1	4	2	15	8	14	11	
	2	2	3	1	13	8	14	10	
	3	3	3	1	11	7	14	9	
	4	4	2	1	9	5	14	9	
	5	6	1	1	9	3	14	8	
	6	9	1	1	6	3	14	8	
48	1	4	1	4	13	13	11	6	
	2	5	1	4	11	12	10	6	
	3	7	1	4	8	11	10	4	
	4	11	1	4	8	10	9	4	
	5	16	1	3	5	9	9	3	
	6	19	1	3	4	9	9	1	
49	1	3	4	3	16	16	11	11	
	2	9	4	2	14	16	11	8	
	3	12	4	2	12	16	11	8	
	4	15	3	2	11	16	11	7	
	5	17	3	2	11	16	11	5	
	6	20	3	2	9	16	11	5	
50	1	1	2	5	17	5	18	17	
	2	3	2	4	16	4	16	16	
	3	7	2	3	14	4	14	15	
	4	8	2	3	10	4	10	15	
	5	10	2	1	10	4	7	14	
	6	20	2	1	8	4	5	14	
51	1	3	4	3	16	13	8	13	
	2	8	4	2	16	11	8	12	
	3	10	4	2	12	9	8	11	
	4	11	4	2	12	8	8	9	
	5	15	4	2	10	7	8	8	
	6	18	4	2	6	5	8	6	
52	1	0	0	0	0	0	0	0	
************************************************************************

 RESOURCE AVAILABILITIES 
	R 1	R 2	N 1	N 2	N 3	N 4
	30	32	584	565	579	544

************************************************************************
